54 46 176 65 26 152 168 14 115 95 17 70 156 15 79 82 91 143 123 107 55 125 134 29 140 20 99 1 59 23 159 63 19 47 86 37 21 67 187 135 141 162 32 43 88 93 157 130 112 94 199 41 102 101 180 169 166 48 73 45 8 149 165 53 77 150 39 117 18 118 42 97 72 175 131 190 38 137 98 85 153 198 92 3 78 104 89 121 84 188 33 129 2 147 148 138 69 124 110 120 58 24 9 34 177 174 119 172 74 40 68 36 61 182 193 116 113 81 30 22 142 62 171 66 136 44 194 126 179 57 28 197 12 145 186 122 27 100 170 127 56 151 11 83 90 10 60 31 185 96 155 132 6 128 16 0 4 158 114 103 5 178 161 192 184 51 75 25 144 35 71 109 167 181 173 164 49 160 13 111 80 195 146 189 196 64 50 191 163 105 108 87 106 7 139 76 133 52 183 154